%mem=16GB
%nprocshared=16
# opt freq B3LYP/6-31G(d) empiricaldispersion=gd3bj integral=ultrafine 

-81.61099496

0 1
Ni                  0.12383660   -0.56740987   -2.15056774
 C                 -0.88893224    0.39663200   -3.29437730
 O                 -1.48873748    0.87445636   -4.13976821
 C                 -0.52089263   -2.22904188   -1.94773272
 O                 -0.97718442   -3.25064177   -1.71938799
 C                  1.89453583   -0.39862317   -2.40309230
 O                  3.02771316   -0.27502378   -2.45741166
 C                  2.43036387    2.02520691    1.49151380
 C                  2.60483301    0.54181291    1.38466056
 C                  3.80512261   -0.01412837    1.82283202
 C                  4.08219460   -1.36192658    1.70166808
 C                  3.15376663   -2.19885776    1.10408697
 C                  1.95537190   -1.67019420    0.67318707
 C                  1.64560327   -0.31602607    0.83737251
 P                  0.00708079    0.11776840    0.13714815
 C                 -1.16030756   -0.94131394    1.07845835
 C                 -0.73611806   -1.79019830    2.09795561
 C                 -1.63535178   -2.59481317    2.77308036
 C                 -2.97750822   -2.56168439    2.43744037
 C                 -3.41075593   -1.70145356    1.44544367
 C                 -2.52524683   -0.87671623    0.76277506
 C                 -3.04991323    0.08133710   -0.25698882
 C                 -0.49514528    1.73153082    0.85303816
 C                 -0.85538949    1.72172196    2.20235624
 C                 -1.30623736    2.86663621    2.82736799
 C                 -1.41366703    4.04495092    2.10498570
 C                 -1.04044531    4.06597008    0.77586508
 C                 -0.56817942    2.92505379    0.13111769
 C                 -0.13743439    3.04522898   -1.29649061
 H                  2.03514611    2.43150040    0.56402206
 H                  1.74370920    2.28151531    2.29638006
 H                  3.38823345    2.49795015    1.69693438
 H                  4.54730863    0.63939336    2.25909434
 H                  5.02607930   -1.75509171    2.04929476
 H                  3.36364898   -3.24965566    0.96788288
 H                  1.23189993   -2.31568469    0.18588710
 H                  0.30675867   -1.82354214    2.37674837
 H                 -1.28333756   -3.24661762    3.55920464
 H                 -3.68432729   -3.19628602    2.95144753
 H                 -4.46106214   -1.66124828    1.19322987
 H                 -3.19278730    1.06432928    0.19326669
 H                 -2.34001975    0.19103274   -1.08206770
 H                 -4.00385573   -0.25661290   -0.65604499
 H                 -0.77467203    0.80478687    2.76781655
 H                 -1.57609119    2.83854536    3.87266758
 H                 -1.77749864    4.94401006    2.57997949
 H                 -1.10663463    4.98674432    0.21382964
 H                  0.39286096    2.14992710   -1.62539516
 H                 -1.00347410    3.19363982   -1.94226987
 H                  0.52038691    3.90413309   -1.42232491

