%mem=16GB
%nprocshared=16
# opt freq B3LYP/6-31G(d) empiricaldispersion=gd3bj integral=ultrafine 

-81.61129490

0 1
Ni                  0.25973405   -0.57318950   -2.14732472
 C                 -0.80216137    0.17397520   -3.40419941
 O                 -1.37550680    0.50796683   -4.33267904
 C                 -0.12263349   -2.30907979   -1.92770437
 O                 -0.42998684   -3.38568672   -1.70418110
 C                  1.99422222   -0.13105220   -2.30286575
 O                  3.09727693    0.15951446   -2.29326620
 C                  2.39057098    2.13413233    0.86522659
 C                  2.57440822    0.66925091    1.11549636
 C                  3.79923307    0.22145012    1.60234045
 C                  4.07664695   -1.12344766    1.75701550
 C                  3.12985728   -2.06420565    1.38540335
 C                  1.90226874   -1.63950123    0.91950467
 C                  1.58761853   -0.28086633    0.83166957
 P                 -0.05672658    0.09719347    0.12136197
 C                 -1.22885276   -0.95047226    1.07071259
 C                 -0.84103683   -1.66974110    2.19881463
 C                 -1.75139120   -2.43945046    2.89886906
 C                 -3.06967015   -2.49945160    2.48214172
 C                 -3.47073155   -1.76038991    1.38499339
 C                 -2.57384810   -0.97037841    0.67623909
 C                 -3.06665308   -0.12738479   -0.45391772
 C                 -0.57012901    1.68208626    0.89418290
 C                 -0.57926210    1.67926281    2.29007540
 C                 -1.00078777    2.78417385    3.00031679
 C                 -1.42965452    3.91271396    2.31818923
 C                 -1.40745416    3.92600600    0.93789904
 C                 -0.97453352    2.82443105    0.20247950
 C                 -0.94790767    2.92694903   -1.28936809
 H                  1.78991191    2.29406970   -0.02873914
 H                  1.89324914    2.61812120    1.70470590
 H                  3.35860294    2.61048302    0.72308735
 H                  4.55906341    0.95155369    1.84312803
 H                  5.03871781   -1.43876934    2.13313808
 H                  3.34825810   -3.12018873    1.44948389
 H                  1.16980506   -2.37127474    0.60015162
 H                  0.18187458   -1.63320474    2.54368450
 H                 -1.42664676   -2.99141777    3.76874557
 H                 -3.78363136   -3.10904500    3.01617021
 H                 -4.50467178   -1.78672647    1.07095248
 H                 -4.01404817   -0.49907065   -0.83760567
 H                 -3.20927514    0.89835903   -0.11183199
 H                 -2.33550010   -0.11160494   -1.26758090
 H                 -0.24383764    0.79942387    2.82002093
 H                 -0.99719727    2.76524915    4.08007639
 H                 -1.77111488    4.78068865    2.86266750
 H                 -1.72793579    4.80963397    0.40436743
 H                 -0.34509556    2.12753894   -1.72354308
 H                 -1.95719617    2.85678090   -1.69524061
 H                 -0.53075572    3.88453660   -1.59647898

