%mem=16GB
%nprocshared=16
# opt freq B3LYP/6-31G(d) empiricaldispersion=gd3bj integral=ultrafine 

-81.61576356

0 1
Ni                  0.00800596   -0.02003561   -2.17766421
 C                  0.52636430    1.65168767   -2.59436747
 O                  0.85150348    2.72187801   -2.82582545
 C                 -1.69268275   -0.38912566   -2.63655642
 O                 -2.77704210   -0.61158302   -2.91835217
 C                  1.19433984   -1.31561998   -2.56573977
 O                  1.94618975   -2.15409993   -2.75649225
 C                  3.00975746    0.76993928   -0.37892409
 C                  2.77362847   -0.30021524    0.63968847
 C                  3.86670392   -0.90476096    1.24842205
 C                  3.70867860   -1.88249490    2.21389997
 C                  2.43471197   -2.26149004    2.59909604
 C                  1.33397932   -1.67719104    2.00036573
 C                  1.48379358   -0.70491603    1.01297885
 P                 -0.00229857   -0.00489618    0.19656373
 C                 -1.36483910   -0.92906347    1.00377643
 C                 -2.15655960   -0.29643716    1.96009811
 C                 -3.21907311   -0.95312836    2.55311183
 C                 -3.50853129   -2.25728365    2.19268696
 C                 -2.71876235   -2.89783811    1.25462941
 C                 -1.64334454   -2.25812599    0.65133408
 C                 -0.81078463   -3.00382655   -0.34234570
 C                 -0.13288073    1.65296421    0.97077148
 C                  0.79899023    2.04024942    1.93220752
 C                  0.75989131    3.30206151    2.49572330
 C                 -0.21484329    4.20153234    2.10064831
 C                 -1.15417038    3.81965388    1.16011488
 C                 -1.13627563    2.55396096    0.58660875
 C                 -2.19432720    2.19510867   -0.40885338
 H                  3.96956942    1.25445295   -0.21203665
 H                  3.02189236    0.33968285   -1.38328452
 H                  2.22545720    1.52542828   -0.34191121
 H                  4.86092665   -0.59619309    0.95728408
 H                  4.57561274   -2.33846279    2.66870519
 H                  2.29355621   -3.01112404    3.36343758
 H                  0.34462979   -1.97823456    2.31068694
 H                 -1.93799126    0.72035150    2.24983439
 H                 -3.81728453   -0.44377064    3.29390931
 H                 -4.34064107   -2.77716945    2.64398703
 H                 -2.93701114   -3.92069154    0.98159276
 H                 -1.07770166   -2.70184032   -1.35861844
 H                  0.24930037   -2.79576535   -0.19780597
 H                 -0.97268609   -4.07597025   -0.25641722
 H                  1.56245944    1.34586307    2.24923711
 H                  1.49124263    3.57881011    3.24045349
 H                 -0.24957098    5.19271035    2.52809304
 H                 -1.92524293    4.51541240    0.86036115
 H                 -3.11288009    2.74243563   -0.20680216
 H                 -1.86589918    2.45454965   -1.41815485
 H                 -2.41111055    1.12767106   -0.38378436

