%mem=16GB
%nprocshared=16
# opt freq B3LYP/6-31G(d) empiricaldispersion=gd3bj integral=ultrafine 

-81.60957617

0 1
Ni                  0.27387227   -0.39078420   -2.17486839
 C                  0.30634442   -2.17175581   -1.99855536
 O                  0.35273046   -3.28617401   -1.75857984
 C                  1.91812345    0.30517374   -2.41901448
 O                  2.97879819    0.67827382   -2.60718236
 C                 -0.87941659    0.29761903   -3.37971346
 O                 -1.43725141    0.69474112   -4.29307238
 C                  2.00193559    2.41933257    0.14527764
 C                  2.44329816    1.07511649    0.63826455
 C                  3.77056472    0.89578897    1.01208408
 C                  4.25265988   -0.33885590    1.40606363
 C                  3.40714170   -1.43584179    1.40743795
 C                  2.08072783   -1.27508589    1.05701271
 C                  1.57419155   -0.02165734    0.71327282
 P                 -0.16127075    0.08270678    0.13772264
 C                 -1.05019674   -1.16002304    1.16404168
 C                 -0.59451201   -1.38804201    2.46459505
 C                 -1.22979402   -2.28086419    3.30266982
 C                 -2.34826794   -2.96583483    2.85550960
 C                 -2.82117950   -2.72878173    1.58134071
 C                 -2.19952316   -1.82348399    0.72313703
 C                 -2.82484601   -1.59887165   -0.61720710
 C                 -0.82905304    1.55324427    1.01565008
 C                 -0.27597496    1.85626680    2.26017546
 C                 -0.76907016    2.89249493    3.02675412
 C                 -1.82844463    3.65096229    2.55523135
 C                 -2.37361456    3.36324634    1.31997338
 C                 -1.89425563    2.31770866    0.53486015
 C                 -2.54336379    2.05643363   -0.78546491
 H                  1.67528036    3.05090075    0.97103821
 H                  2.82578460    2.92155547   -0.35922400
 H                  1.17074448    2.32117838   -0.55562482
 H                  4.44060110    1.74331794    0.97336457
 H                  5.28970377   -0.45030701    1.68671422
 H                  3.77907350   -2.41433142    1.67397795
 H                  1.42497339   -2.13575230    1.04053995
 H                  0.28020809   -0.87049654    2.82658908
 H                 -0.85120280   -2.44248404    4.30115635
 H                 -2.84980450   -3.67349091    3.49909707
 H                 -3.70146179   -3.24897877    1.23038523
 H                 -3.03909006   -2.55057560   -1.10244184
 H                 -3.76821355   -1.06660238   -0.50020628
 H                 -2.17425932   -1.01212800   -1.26668780
 H                  0.56329023    1.28431447    2.62720948
 H                 -0.32470996    3.10978099    3.98697580
 H                 -2.22192416    4.46496351    3.14605217
 H                 -3.19532683    3.95711120    0.94530879
 H                 -3.44420280    1.45918572   -0.65035102
 H                 -2.82724598    2.99052879   -1.26641904
 H                 -1.86569341    1.51229097   -1.44307497

