%mem=16GB
%nprocshared=16
# opt freq B3LYP/6-31G(d) empiricaldispersion=gd3bj integral=ultrafine 

-81.61025275

0 1
Ni                 -0.22410232    0.00821761   -2.23983149
 C                  1.42850257    0.36743513   -2.82003047
 O                  2.45643800    0.68233226   -3.20769345
 C                 -1.29756829    1.42631971   -2.49256869
 O                 -1.95572194    2.33187591   -2.71193667
 C                 -1.02155541   -1.49604913   -2.80798559
 O                 -1.60349310   -2.38434490   -3.22727397
 C                  0.93465509    0.02508715    3.25226068
 C                  1.84591390   -0.60044636    2.24487101
 C                  3.04663676   -1.15155586    2.68105447
 C                  3.93922054   -1.74762051    1.80936497
 C                  3.64274070   -1.80480413    0.45819357
 C                  2.45381869   -1.26699581    0.00725283
 C                  1.55081573   -0.66007000    0.87735503
 P                 -0.01305288   -0.06650392    0.12990986
 C                 -1.19229512   -1.04301210    1.14653912
 C                 -2.02862203   -0.45392861    2.09382627
 C                 -2.91473178   -1.21064015    2.83650265
 C                 -2.97960814   -2.58044096    2.64832302
 C                 -2.13328079   -3.17816237    1.73462749
 C                 -1.22870915   -2.43558163    0.98294497
 C                 -0.30046266   -3.16344076    0.06468781
 C                 -0.29999843    1.68669862    0.58089419
 C                 -1.63354207    2.10065137    0.51333644
 C                 -1.99289500    3.40857526    0.76807095
 C                 -1.00922949    4.33596564    1.07133813
 C                  0.31809979    3.95100547    1.05998231
 C                  0.70220085    2.63975260    0.79397043
 C                  2.16130071    2.31777121    0.70500564
 H                  0.36664639    0.84234938    2.81665255
 H                  0.22975594   -0.71708382    3.62729411
 H                  1.50663776    0.40214325    4.09763969
 H                  3.28322416   -1.10771897    3.73484731
 H                  4.86307436   -2.16453035    2.18227394
 H                  4.32798094   -2.26540481   -0.23789983
 H                  2.20822479   -1.31494417   -1.04880075
 H                 -1.98809115    0.60942779    2.27087159
 H                 -3.55167662   -0.72669374    3.56217714
 H                 -3.67667398   -3.17877830    3.21620316
 H                 -2.16460552   -4.24984866    1.59729864
 H                  0.59591157   -3.46621580    0.60725569
 H                 -0.77447039   -4.05814980   -0.33448410
 H                  0.01083843   -2.52776793   -0.76570398
 H                 -2.39335749    1.38149108    0.23068926
 H                 -3.03069700    3.70371338    0.71736288
 H                 -1.27424083    5.36171085    1.28088929
 H                  1.08662313    4.68842273    1.24389549
 H                  2.34388622    1.60235829   -0.09577648
 H                  2.73086406    3.22188103    0.50020711
 H                  2.52936008    1.88772715    1.63506020

